(set-logic QF_UF)
(declare-fun A0 () Bool)
(declare-fun A1 () Bool)
(declare-fun A2 () Bool)
(declare-fun A3 () Bool)
(declare-fun A4 () Bool)
(declare-fun A5 () Bool)
(declare-fun A6 () Bool)
(declare-fun A7 () Bool)
(declare-fun A8 () Bool)
(declare-fun A9 () Bool)
(declare-fun A10 () Bool)
(declare-fun A11 () Bool)
(declare-fun A12 () Bool)
(declare-fun A13 () Bool)
(declare-fun A14 () Bool)
(declare-fun A15 () Bool)
(declare-fun A16 () Bool)
(declare-fun A17 () Bool)
(declare-fun A18 () Bool)
(declare-fun A19 () Bool)
(declare-fun A20 () Bool)
(declare-fun A21 () Bool)
(declare-fun A22 () Bool)
(declare-fun A23 () Bool)
(declare-fun A24 () Bool)
(assert (let ((.def_0 (not A3))) (let ((.def_1 (or .def_0 A16))) (let ((.def_2 (not A14))) (let ((.def_3 (not A8))) (let ((.def_4 (or .def_3 .def_2))) (let ((.def_5 (or .def_4 .def_1))) (let ((.def_6 (not A7))) (let ((.def_7 (or A5 .def_6))) (let ((.def_8 (not .def_7))) (let ((.def_9 (or A18 A3))) (let ((.def_10 (not .def_9))) (let ((.def_11 (and .def_10 .def_8))) (let ((.def_12 (not .def_11))) (let ((.def_13 (= .def_12 .def_5))) (let ((.def_14 (not .def_13))) (let ((.def_15 (not A17))) (let ((.def_16 (and .def_15 A1))) (let ((.def_17 (not A21))) (let ((.def_18 (not A24))) (let ((.def_19 (or .def_18 .def_17))) (let ((.def_20 (and .def_19 .def_16))) (let ((.def_21 (not A19))) (let ((.def_22 (and .def_21 A3))) (let ((.def_23 (not .def_22))) (let ((.def_24 (or A23 A6))) (let ((.def_25 (not .def_24))) (let ((.def_26 (or .def_25 .def_23))) (let ((.def_27 (and .def_26 .def_20))) (let ((.def_28 (not .def_27))) (let ((.def_29 (and .def_28 .def_14))) (let ((.def_30 (not A23))) (let ((.def_31 (or A7 .def_30))) (let ((.def_32 (not .def_31))) (let ((.def_33 (and A1 A22))) (let ((.def_34 (or .def_33 .def_32))) (let ((.def_35 (not A9))) (let ((.def_36 (and .def_21 .def_35))) (let ((.def_37 (not .def_36))) (let ((.def_38 (= A3 A20))) (let ((.def_39 (not .def_38))) (let ((.def_40 (and .def_39 .def_37))) (let ((.def_41 (not .def_40))) (let ((.def_42 (and .def_41 .def_34))) (let ((.def_43 (not A1))) (let ((.def_44 (or A17 .def_43))) (let ((.def_45 (and A20 .def_35))) (let ((.def_46 (and .def_45 .def_44))) (let ((.def_47 (and .def_21 A17))) (let ((.def_48 (and A10 A20))) (let ((.def_49 (not .def_48))) (let ((.def_50 (or .def_49 .def_47))) (let ((.def_51 (or .def_50 .def_46))) (let ((.def_52 (not .def_51))) (let ((.def_53 (or .def_52 .def_42))) (let ((.def_54 (and .def_53 .def_29))) (let ((.def_55 (or A13 A10))) (let ((.def_56 (not .def_55))) (let ((.def_57 (not A4))) (let ((.def_58 (and .def_57 .def_43))) (let ((.def_59 (or .def_58 .def_56))) (let ((.def_60 (not A0))) (let ((.def_61 (and .def_60 A24))) (let ((.def_62 (not A6))) (let ((.def_63 (or .def_0 .def_62))) (let ((.def_64 (not .def_63))) (let ((.def_65 (= .def_64 .def_61))) (let ((.def_66 (not .def_65))) (let ((.def_67 (and .def_66 .def_59))) (let ((.def_68 (= .def_15 A4))) (let ((.def_69 (not .def_68))) (let ((.def_70 (not A10))) (let ((.def_71 (or .def_35 .def_70))) (let ((.def_72 (not .def_71))) (let ((.def_73 (= .def_72 .def_69))) (let ((.def_74 (and .def_30 A23))) (let ((.def_75 (or A23 .def_2))) (let ((.def_76 (or .def_75 .def_74))) (let ((.def_77 (not .def_76))) (let ((.def_78 (or .def_77 .def_73))) (let ((.def_79 (not .def_78))) (let ((.def_80 (and .def_79 .def_67))) (let ((.def_81 (or A6 A1))) (let ((.def_82 (and A20 A24))) (let ((.def_83 (not .def_82))) (let ((.def_84 (or .def_83 .def_81))) (let ((.def_85 (not .def_84))) (let ((.def_86 (not A18))) (let ((.def_87 (or A16 .def_86))) (let ((.def_88 (not .def_87))) (let ((.def_89 (and .def_3 .def_70))) (let ((.def_90 (not .def_89))) (let ((.def_91 (and .def_90 .def_88))) (let ((.def_92 (and .def_91 .def_85))) (let ((.def_93 (not .def_92))) (let ((.def_94 (and A15 .def_2))) (let ((.def_95 (not .def_94))) (let ((.def_96 (and A14 A13))) (let ((.def_97 (or .def_96 .def_95))) (let ((.def_98 (not .def_97))) (let ((.def_99 (or A3 A2))) (let ((.def_100 (not .def_99))) (let ((.def_101 (and A18 A0))) (let ((.def_102 (and .def_101 .def_100))) (let ((.def_103 (not .def_102))) (let ((.def_104 (and .def_103 .def_98))) (let ((.def_105 (or .def_104 .def_93))) (let ((.def_106 (and .def_105 .def_80))) (let ((.def_107 (and .def_106 .def_54))) (let ((.def_108 (and A9 A10))) (let ((.def_109 (not .def_108))) (let ((.def_110 (or .def_6 .def_0))) (let ((.def_111 (or .def_110 .def_109))) (let ((.def_112 (not .def_111))) (let ((.def_113 (and A13 A14))) (let ((.def_114 (not .def_113))) (let ((.def_115 (or .def_35 .def_2))) (let ((.def_116 (and .def_115 .def_114))) (let ((.def_117 (not .def_116))) (let ((.def_118 (or .def_117 .def_112))) (let ((.def_119 (not .def_118))) (let ((.def_120 (= A17 A11))) (let ((.def_121 (or A1 .def_62))) (let ((.def_122 (and .def_121 .def_120))) (let ((.def_123 (or .def_17 A8))) (let ((.def_124 (not .def_123))) (let ((.def_125 (not A12))) (let ((.def_126 (and .def_3 .def_125))) (let ((.def_127 (= .def_126 .def_124))) (let ((.def_128 (not .def_127))) (let ((.def_129 (or .def_128 .def_122))) (let ((.def_130 (and .def_129 .def_119))) (let ((.def_131 (or A4 .def_6))) (let ((.def_132 (not .def_131))) (let ((.def_133 (and A2 .def_0))) (let ((.def_134 (not .def_133))) (let ((.def_135 (and .def_134 .def_132))) (let ((.def_136 (or A0 .def_2))) (let ((.def_137 (and A22 A8))) (let ((.def_138 (or .def_137 .def_136))) (let ((.def_139 (not .def_138))) (let ((.def_140 (or .def_139 .def_135))) (let ((.def_141 (not .def_140))) (let ((.def_142 (and A9 A15))) (let ((.def_143 (and A12 .def_3))) (let ((.def_144 (not .def_143))) (let ((.def_145 (and .def_144 .def_142))) (let ((.def_146 (not .def_145))) (let ((.def_147 (not A22))) (let ((.def_148 (or .def_147 A2))) (let ((.def_149 (and A1 A15))) (let ((.def_150 (and .def_149 .def_148))) (let ((.def_151 (not .def_150))) (let ((.def_152 (and .def_151 .def_146))) (let ((.def_153 (or .def_152 .def_141))) (let ((.def_154 (and .def_153 .def_130))) (let ((.def_155 (not .def_154))) (let ((.def_156 (not A16))) (let ((.def_157 (or .def_156 A15))) (let ((.def_158 (not A20))) (let ((.def_159 (or .def_158 A14))) (let ((.def_160 (or .def_159 .def_157))) (let ((.def_161 (or .def_60 .def_156))) (let ((.def_162 (not A2))) (let ((.def_163 (or A17 .def_162))) (let ((.def_164 (and .def_163 .def_161))) (let ((.def_165 (or .def_164 .def_160))) (let ((.def_166 (not .def_165))) (let ((.def_167 (or .def_125 A10))) (let ((.def_168 (not .def_167))) (let ((.def_169 (or .def_156 .def_60))) (let ((.def_170 (or .def_169 .def_168))) (let ((.def_171 (not .def_170))) (let ((.def_172 (or .def_43 A21))) (let ((.def_173 (not .def_172))) (let ((.def_174 (or .def_17 .def_30))) (let ((.def_175 (not .def_174))) (let ((.def_176 (and .def_175 .def_173))) (let ((.def_177 (or .def_176 .def_171))) (let ((.def_178 (and .def_177 .def_166))) (let ((.def_179 (not .def_178))) (let ((.def_180 (not A5))) (let ((.def_181 (and A21 .def_180))) (let ((.def_182 (not .def_181))) (let ((.def_183 (and A7 .def_162))) (let ((.def_184 (and .def_183 .def_182))) (let ((.def_185 (not .def_184))) (let ((.def_186 (and .def_60 .def_3))) (let ((.def_187 (or .def_57 .def_70))) (let ((.def_188 (not .def_187))) (let ((.def_189 (= .def_188 .def_186))) (let ((.def_190 (or .def_189 .def_185))) (let ((.def_191 (not .def_190))) (let ((.def_192 (and A22 A22))) (let ((.def_193 (or .def_30 A11))) (let ((.def_194 (not .def_193))) (let ((.def_195 (or .def_194 .def_192))) (let ((.def_196 (not A13))) (let ((.def_197 (and .def_196 .def_17))) (let ((.def_198 (= .def_147 A19))) (let ((.def_199 (and .def_198 .def_197))) (let ((.def_200 (and .def_199 .def_195))) (let ((.def_201 (and .def_200 .def_191))) (let ((.def_202 (and .def_201 .def_179))) (let ((.def_203 (not .def_202))) (let ((.def_204 (or .def_203 .def_155))) (let ((.def_205 (not .def_204))) (let ((.def_206 (= .def_205 .def_107))) (let ((.def_207 (or A22 A23))) (let ((.def_208 (not .def_207))) (let ((.def_209 (and .def_6 .def_196))) (let ((.def_210 (not .def_209))) (let ((.def_211 (and .def_210 .def_208))) (let ((.def_212 (not .def_211))) (let ((.def_213 (and A15 A8))) (let ((.def_214 (= A19 .def_0))) (let ((.def_215 (and .def_214 .def_213))) (let ((.def_216 (not .def_215))) (let ((.def_217 (and .def_216 .def_212))) (let ((.def_218 (or .def_17 A2))) (let ((.def_219 (not .def_218))) (let ((.def_220 (not A11))) (let ((.def_221 (or .def_220 A16))) (let ((.def_222 (not .def_221))) (let ((.def_223 (and .def_222 .def_219))) (let ((.def_224 (and A14 .def_86))) (let ((.def_225 (or .def_6 A8))) (let ((.def_226 (or .def_225 .def_224))) (let ((.def_227 (or .def_226 .def_223))) (let ((.def_228 (not .def_227))) (let ((.def_229 (and .def_228 .def_217))) (let ((.def_230 (and .def_162 A24))) (let ((.def_231 (or A1 A5))) (let ((.def_232 (and .def_231 .def_230))) (let ((.def_233 (not .def_232))) (let ((.def_234 (or A10 A3))) (let ((.def_235 (not .def_234))) (let ((.def_236 (or A14 .def_0))) (let ((.def_237 (not .def_236))) (let ((.def_238 (and .def_237 .def_235))) (let ((.def_239 (and .def_238 .def_233))) (let ((.def_240 (not .def_239))) (let ((.def_241 (or A1 A17))) (let ((.def_242 (or A18 .def_162))) (let ((.def_243 (not .def_242))) (let ((.def_244 (and .def_243 .def_241))) (let ((.def_245 (not .def_244))) (let ((.def_246 (or A0 .def_35))) (let ((.def_247 (not .def_246))) (let ((.def_248 (or .def_57 A0))) (let ((.def_249 (or .def_248 .def_247))) (let ((.def_250 (or .def_249 .def_245))) (let ((.def_251 (or .def_250 .def_240))) (let ((.def_252 (or .def_251 .def_229))) (let ((.def_253 (or A16 A3))) (let ((.def_254 (not .def_253))) (let ((.def_255 (or A4 .def_57))) (let ((.def_256 (not .def_255))) (let ((.def_257 (or .def_256 .def_254))) (let ((.def_258 (= .def_220 A11))) (let ((.def_259 (not .def_258))) (let ((.def_260 (= A20 A3))) (let ((.def_261 (or .def_260 .def_259))) (let ((.def_262 (and .def_261 .def_257))) (let ((.def_263 (not .def_262))) (let ((.def_264 (and .def_147 .def_158))) (let ((.def_265 (or A5 .def_180))) (let ((.def_266 (not .def_265))) (let ((.def_267 (or .def_266 .def_264))) (let ((.def_268 (= .def_3 .def_70))) (let ((.def_269 (not .def_268))) (let ((.def_270 (or A12 A18))) (let ((.def_271 (not .def_270))) (let ((.def_272 (or .def_271 .def_269))) (let ((.def_273 (= .def_272 .def_267))) (let ((.def_274 (not .def_273))) (let ((.def_275 (and .def_274 .def_263))) (let ((.def_276 (not .def_275))) (let ((.def_277 (= .def_86 .def_57))) (let ((.def_278 (not .def_277))) (let ((.def_279 (and A15 A5))) (let ((.def_280 (= .def_279 .def_278))) (let ((.def_281 (not .def_280))) (let ((.def_282 (or .def_0 A0))) (let ((.def_283 (not .def_282))) (let ((.def_284 (and .def_125 A24))) (let ((.def_285 (not .def_284))) (let ((.def_286 (= .def_285 .def_283))) (let ((.def_287 (not .def_286))) (let ((.def_288 (and .def_287 .def_281))) (let ((.def_289 (and .def_86 A7))) (let ((.def_290 (not .def_289))) (let ((.def_291 (or A8 .def_125))) (let ((.def_292 (and .def_291 .def_290))) (let ((.def_293 (not .def_292))) (let ((.def_294 (or A8 .def_70))) (let ((.def_295 (not .def_294))) (let ((.def_296 (not A15))) (let ((.def_297 (and .def_296 A9))) (let ((.def_298 (not .def_297))) (let ((.def_299 (or .def_298 .def_295))) (let ((.def_300 (or .def_299 .def_293))) (let ((.def_301 (or .def_300 .def_288))) (let ((.def_302 (not .def_301))) (let ((.def_303 (and .def_302 .def_276))) (let ((.def_304 (= .def_303 .def_252))) (let ((.def_305 (not .def_304))) (let ((.def_306 (or .def_30 A14))) (let ((.def_307 (not .def_306))) (let ((.def_308 (or A0 A17))) (let ((.def_309 (and .def_308 .def_307))) (let ((.def_310 (not .def_309))) (let ((.def_311 (or A19 .def_17))) (let ((.def_312 (not .def_311))) (let ((.def_313 (and A7 A15))) (let ((.def_314 (not .def_313))) (let ((.def_315 (or .def_314 .def_312))) (let ((.def_316 (= .def_315 .def_310))) (let ((.def_317 (= A20 A8))) (let ((.def_318 (not .def_317))) (let ((.def_319 (and A11 A1))) (let ((.def_320 (not .def_319))) (let ((.def_321 (or .def_320 .def_318))) (let ((.def_322 (not .def_321))) (let ((.def_323 (= .def_57 .def_6))) (let ((.def_324 (or .def_2 A11))) (let ((.def_325 (and .def_324 .def_323))) (let ((.def_326 (not .def_325))) (let ((.def_327 (or .def_326 .def_322))) (let ((.def_328 (not .def_327))) (let ((.def_329 (and .def_328 .def_316))) (let ((.def_330 (and A8 .def_296))) (let ((.def_331 (not .def_330))) (let ((.def_332 (and .def_196 .def_70))) (let ((.def_333 (or .def_332 .def_331))) (let ((.def_334 (not .def_333))) (let ((.def_335 (and A7 .def_62))) (let ((.def_336 (and A4 A2))) (let ((.def_337 (or .def_336 .def_335))) (let ((.def_338 (or .def_337 .def_334))) (let ((.def_339 (and A17 .def_35))) (let ((.def_340 (and A10 .def_6))) (let ((.def_341 (not .def_340))) (let ((.def_342 (and .def_341 .def_339))) (let ((.def_343 (or A2 .def_30))) (let ((.def_344 (or A17 .def_60))) (let ((.def_345 (or .def_344 .def_343))) (let ((.def_346 (not .def_345))) (let ((.def_347 (and .def_346 .def_342))) (let ((.def_348 (not .def_347))) (let ((.def_349 (or .def_348 .def_338))) (let ((.def_350 (not .def_349))) (let ((.def_351 (and .def_350 .def_329))) (let ((.def_352 (and A6 A18))) (let ((.def_353 (not .def_352))) (let ((.def_354 (or A1 .def_86))) (let ((.def_355 (or .def_354 .def_353))) (let ((.def_356 (= .def_162 .def_220))) (let ((.def_357 (not .def_356))) (let ((.def_358 (and A0 .def_0))) (let ((.def_359 (and .def_358 .def_357))) (let ((.def_360 (and .def_359 .def_355))) (let ((.def_361 (and A17 .def_2))) (let ((.def_362 (not .def_361))) (let ((.def_363 (and A9 .def_180))) (let ((.def_364 (or .def_363 .def_362))) (let ((.def_365 (not .def_364))) (let ((.def_366 (or .def_86 .def_62))) (let ((.def_367 (not .def_366))) (let ((.def_368 (or A22 A0))) (let ((.def_369 (or .def_368 .def_367))) (let ((.def_370 (not .def_369))) (let ((.def_371 (and .def_370 .def_365))) (let ((.def_372 (and .def_371 .def_360))) (let ((.def_373 (not .def_372))) (let ((.def_374 (and A7 A22))) (let ((.def_375 (not .def_374))) (let ((.def_376 (and .def_196 A20))) (let ((.def_377 (not .def_376))) (let ((.def_378 (and .def_377 .def_375))) (let ((.def_379 (and .def_0 A12))) (let ((.def_380 (and A4 .def_147))) (let ((.def_381 (or .def_380 .def_379))) (let ((.def_382 (not .def_381))) (let ((.def_383 (or .def_382 .def_378))) (let ((.def_384 (not .def_383))) (let ((.def_385 (or A6 .def_62))) (let ((.def_386 (or .def_385 .def_121))) (let ((.def_387 (not .def_386))) (let ((.def_388 (and A1 A6))) (let ((.def_389 (and A12 A24))) (let ((.def_390 (or .def_389 .def_388))) (let ((.def_391 (and .def_390 .def_387))) (let ((.def_392 (or .def_391 .def_384))) (let ((.def_393 (not .def_392))) (let ((.def_394 (or .def_393 .def_373))) (let ((.def_395 (not .def_394))) (let ((.def_396 (and .def_395 .def_351))) (let ((.def_397 (not .def_396))) (let ((.def_398 (or .def_397 .def_305))) (let ((.def_399 (= .def_398 .def_206))) .def_399)))))))))))))))))))))))))))))))))))))))))))))))))))))))))))))))))))))))))))))))))))))))))))))))))))))))))))))))))))))))))))))))))))))))))))))))))))))))))))))))))))))))))))))))))))))))))))))))))))))))))))))))))))))))))))))))))))))))))))))))))))))))))))))))))))))))))))))))))))))))))))))))))))))))))))))))))))))))))))))))))))))))))))))))))))))))))))))))))))))))))))))))))))))))))))))))))))))))))))))))))
(check-sat)
